instances/knapsack/discrete_knapsack_uncertainty/knapsack_70_13.lp
\ Model knapsack_70_13
\ LP format - for model browsing. Use MPS format to capture full model detail.
\ Signature: 0x9699bb600e1f4c54
Minimize
  - 12 x[0] - 100 x[1] - 6 x[2] - 46 x[3] - 67 x[4] - 63 x[5] - 79 x[6]
   - 37 x[7] - 52 x[8] - 32 x[9] - 33 x[10] - 89 x[11] - 73 x[12]
   - 80 x[13] - 77 x[14] - 66 x[15] - 40 x[16] - 68 x[17] - 28 x[18]
   - 39 x[19] - 27 x[20] - 13 x[21] - 90 x[22] - 54 x[23] - 19 x[24]
   - 68 x[25] - 82 x[26] - 77 x[27] - 28 x[28] - 38 x[29] - 7 x[30]
   - 94 x[31] - 58 x[32] - 49 x[33] - 85 x[34] - 59 x[35] - 35 x[36]
   - 65 x[37] - 28 x[38] - 73 x[39] - 78 x[40] - 19 x[41] - 15 x[42]
   - 81 x[43] - 8 x[44] - 13 x[45] - 30 x[46] - 54 x[47] - 34 x[48]
   - 59 x[49] - 73 x[50] - 44 x[51] - 61 x[52] - 51 x[53] - 74 x[54]
   - 24 x[55] - 36 x[56] - 94 x[57] - 18 x[58] - 53 x[59] - 50 x[60]
   - 36 x[61] - 79 x[62] - 51 x[63] - 44 x[64] - 39 x[65] - 83 x[66]
   - 31 x[67] - 22 x[68] - 35 x[69]
Subject To
 primal_upper: 15 x[0] + 24 x[1] + 26 x[2] + 27 x[3] + 40 x[4] + 93 x[5]
   + 37 x[6] + 23 x[7] + 5 x[8] + 2 x[9] + 19 x[10] + 39 x[11] + 64 x[12]
   + 20 x[13] + 8 x[14] + 44 x[15] + 81 x[16] + 56 x[17] + 69 x[18]
   + 38 x[19] + 9 x[20] + 23 x[21] + 68 x[22] + 38 x[23] + 56 x[24]
   + 24 x[25] + 94 x[26] + 43 x[27] + 21 x[28] + 87 x[29] + 77 x[30]
   + 11 x[31] + 63 x[32] + 9 x[33] + 60 x[34] + 49 x[35] + 8 x[36]
   + 36 x[37] + 36 x[38] + 10 x[39] + 27 x[40] + 5 x[41] + 6 x[42]
   + 73 x[43] + 43 x[44] + 94 x[45] + 49 x[46] + 21 x[47] + 31 x[48]
   + 16 x[49] + 30 x[50] + 8 x[51] + 53 x[52] + 20 x[53] + 36 x[54]
   + 87 x[55] + 73 x[56] + 62 x[57] + 4 x[58] + 34 x[59] + 40 x[60]
   + 62 x[61] + 87 x[62] + 2 x[63] + 91 x[64] + 28 x[65] + 84 x[66]
   + 38 x[67] + 52 x[68] + 93 x[69] + 1.5 r[0] + 2.4 r[1] + 2.6 r[2]
   + 2.7 r[3] + 4 r[4] + 9.3 r[5] + 3.7 r[6] + 2.3 r[7] + 0.5 r[8]
   + 0.2 r[9] + 1.9 r[10] + 3.9 r[11] + 6.4 r[12] + 2 r[13] + 0.8 r[14]
   + 4.4 r[15] + 8.1 r[16] + 5.6 r[17] + 6.9 r[18] + 3.8 r[19] + 0.9 r[20]
   + 2.3 r[21] + 6.8 r[22] + 3.8 r[23] + 5.6 r[24] + 2.4 r[25] + 9.4 r[26]
   + 4.3 r[27] + 2.1 r[28] + 8.7 r[29] + 7.7 r[30] + 1.1 r[31] + 6.3 r[32]
   + 0.9 r[33] + 6 r[34] + 4.9 r[35] + 0.8 r[36] + 3.6 r[37] + 3.6 r[38]
   + r[39] + 2.7 r[40] + 0.5 r[41] + 0.6 r[42] + 7.3 r[43] + 4.3 r[44]
   + 9.4 r[45] + 4.9 r[46] + 2.1 r[47] + 3.1 r[48] + 1.6 r[49] + 3 r[50]
   + 0.8 r[51] + 5.3 r[52] + 2 r[53] + 3.6 r[54] + 8.7 r[55] + 7.3 r[56]
   + 6.2 r[57] + 0.4 r[58] + 3.4 r[59] + 4 r[60] + 6.2 r[61] + 8.7 r[62]
   + 0.2 r[63] + 9.1 r[64] + 2.8 r[65] + 8.4 r[66] + 3.8 r[67] + 5.2 r[68]
   + 9.3 r[69] <= 276
 primal_lower: 0.6273881200269035 x[0] + 1.184681626293635 x[1]
   + 0.4021348102831283 x[2] + 1.888149679092056 x[3]
   + 1.288742468537434 x[4] + 1.391152594884076 x[5]
   + 0.5162086044647191 x[6] + 2.210226117305957 x[7]
   + 1.771856490769658 x[8] + 3.733982884348662 x[9]
   + 4.04942779536147 x[10] + 1.781020213229884 x[11]
   + 2.870825382328265 x[12] + 4.053004589050195 x[13]
   + 0.6681505526461847 x[14] + 0.4827224670709029 x[15]
   + 2.088253450232801 x[16] + 0.2930766572794349 x[17]
   + 2.864512341375469 x[18] + 3.372899577664025 x[19]
   + 3.687191975500705 x[20] + 2.803578828824134 x[21]
   + 2.517434393387956 x[22] + 3.423386708006409 x[23]
   + 0.6964752455933656 x[24] + 0.9344471937162062 x[25]
   + 0.1644981728728904 x[26] + 0.4702876339053824 x[27]
   + 2.184270734283028 x[28] + 2.666938757768946 x[29]
   + 1.77225963850114 x[30] + 2.185973808933285 x[31]
   + 0.9699599091212419 x[32] + 3.421925127354037 x[33]
   + 3.350006673805903 x[34] + 3.181973207633506 x[35]
   + 3.210870805320353 x[36] + 3.487497125393487 x[37]
   + 1.321136972314906 x[38] + 0.4200781461493479 x[39]
   + 4.050512870655951 x[40] + 4.122785317756297 x[41]
   + 3.80918322470312 x[42] + 3.001642740077744 x[43]
   + 0.9511300950369732 x[44] + 0.0341366437157908 x[45]
   + 0.6266250747033235 x[46] + 0.5769472945365229 x[47]
   + 3.886779163503853 x[48] + 2.72369611866312 x[49]
   + 7.3143921948004879e-04 x[50] + 2.43280079194506 x[51]
   + 1.908506625133094 x[52] + 1.318795543411185 x[53]
   + 2.920451667937765 x[54] + 2.390724719006912 x[55]
   + 0.7782844866010084 x[56] + 4.18866892370841 x[57]
   + 3.042557572413449 x[58] + 2.160519700609331 x[59]
   + 2.366107876699064 x[60] + 4.191567621207055 x[61]
   + 1.571290796366074 x[62] + 4.200108163930387 x[63]
   + 4.065358059990182 x[64] + 4.235257527989433 x[65]
   + 1.679213823839862 x[66] + 3.299278836066273 x[67]
   + 3.326868924882034 x[68] + 3.224336175433378 x[69] + 78 u[0] + 2 u[1]
   + 60 u[2] + 89 u[3] + 78 u[4] + 20 u[5] + 19 u[6] + 10 u[7] + 19 u[8]
   + 4 u[9] + 62 u[10] + 57 u[11] + 70 u[12] + 86 u[13] + 63 u[14]
   + 11 u[15] + 91 u[16] + 30 u[17] + 51 u[18] + 24 u[19] + 91 u[20]
   + 98 u[21] + 18 u[22] + 61 u[23] + 63 u[24] + 22 u[25] + 4 u[26]
   + 54 u[27] + 36 u[28] + 73 u[29] + 4 u[30] + 22 u[31] + 42 u[32]
   + 27 u[33] + 10 u[34] + 63 u[35] + 14 u[36] + 95 u[37] + 94 u[38]
   + 17 u[39] + 73 u[40] + 4 u[41] + 64 u[42] + 32 u[43] + 69 u[44]
   + 37 u[45] + 16 u[46] + 24 u[47] + 57 u[48] + 30 u[49] + 17 u[50]
   + 94 u[51] + 31 u[52] + 10 u[53] + 3 u[54] + 54 u[55] + 67 u[56]
   + 81 u[57] + 42 u[58] + 76 u[59] + 19 u[60] + 97 u[61] + 18 u[62]
   + 9 u[63] + 42 u[64] + 18 u[65] + 79 u[66] + 89 u[67] + 94 u[68]
   + 24 u[69] <= 39590
 mccormick1[0]: - u[0] + r[0] <= 0
 mccormick1[1]: - u[1] + r[1] <= 0
 mccormick1[2]: - u[2] + r[2] <= 0
 mccormick1[3]: - u[3] + r[3] <= 0
 mccormick1[4]: - u[4] + r[4] <= 0
 mccormick1[5]: - u[5] + r[5] <= 0
 mccormick1[6]: - u[6] + r[6] <= 0
 mccormick1[7]: - u[7] + r[7] <= 0
 mccormick1[8]: - u[8] + r[8] <= 0
 mccormick1[9]: - u[9] + r[9] <= 0
 mccormick1[10]: - u[10] + r[10] <= 0
 mccormick1[11]: - u[11] + r[11] <= 0
 mccormick1[12]: - u[12] + r[12] <= 0
 mccormick1[13]: - u[13] + r[13] <= 0
 mccormick1[14]: - u[14] + r[14] <= 0
 mccormick1[15]: - u[15] + r[15] <= 0
 mccormick1[16]: - u[16] + r[16] <= 0
 mccormick1[17]: - u[17] + r[17] <= 0
 mccormick1[18]: - u[18] + r[18] <= 0
 mccormick1[19]: - u[19] + r[19] <= 0
 mccormick1[20]: - u[20] + r[20] <= 0
 mccormick1[21]: - u[21] + r[21] <= 0
 mccormick1[22]: - u[22] + r[22] <= 0
 mccormick1[23]: - u[23] + r[23] <= 0
 mccormick1[24]: - u[24] + r[24] <= 0
 mccormick1[25]: - u[25] + r[25] <= 0
 mccormick1[26]: - u[26] + r[26] <= 0
 mccormick1[27]: - u[27] + r[27] <= 0
 mccormick1[28]: - u[28] + r[28] <= 0
 mccormick1[29]: - u[29] + r[29] <= 0
 mccormick1[30]: - u[30] + r[30] <= 0
 mccormick1[31]: - u[31] + r[31] <= 0
 mccormick1[32]: - u[32] + r[32] <= 0
 mccormick1[33]: - u[33] + r[33] <= 0
 mccormick1[34]: - u[34] + r[34] <= 0
 mccormick1[35]: - u[35] + r[35] <= 0
 mccormick1[36]: - u[36] + r[36] <= 0
 mccormick1[37]: - u[37] + r[37] <= 0
 mccormick1[38]: - u[38] + r[38] <= 0
 mccormick1[39]: - u[39] + r[39] <= 0
 mccormick1[40]: - u[40] + r[40] <= 0
 mccormick1[41]: - u[41] + r[41] <= 0
 mccormick1[42]: - u[42] + r[42] <= 0
 mccormick1[43]: - u[43] + r[43] <= 0
 mccormick1[44]: - u[44] + r[44] <= 0
 mccormick1[45]: - u[45] + r[45] <= 0
 mccormick1[46]: - u[46] + r[46] <= 0
 mccormick1[47]: - u[47] + r[47] <= 0
 mccormick1[48]: - u[48] + r[48] <= 0
 mccormick1[49]: - u[49] + r[49] <= 0
 mccormick1[50]: - u[50] + r[50] <= 0
 mccormick1[51]: - u[51] + r[51] <= 0
 mccormick1[52]: - u[52] + r[52] <= 0
 mccormick1[53]: - u[53] + r[53] <= 0
 mccormick1[54]: - u[54] + r[54] <= 0
 mccormick1[55]: - u[55] + r[55] <= 0
 mccormick1[56]: - u[56] + r[56] <= 0
 mccormick1[57]: - u[57] + r[57] <= 0
 mccormick1[58]: - u[58] + r[58] <= 0
 mccormick1[59]: - u[59] + r[59] <= 0
 mccormick1[60]: - u[60] + r[60] <= 0
 mccormick1[61]: - u[61] + r[61] <= 0
 mccormick1[62]: - u[62] + r[62] <= 0
 mccormick1[63]: - u[63] + r[63] <= 0
 mccormick1[64]: - u[64] + r[64] <= 0
 mccormick1[65]: - u[65] + r[65] <= 0
 mccormick1[66]: - u[66] + r[66] <= 0
 mccormick1[67]: - u[67] + r[67] <= 0
 mccormick1[68]: - u[68] + r[68] <= 0
 mccormick1[69]: - u[69] + r[69] <= 0
 mccormick2[0]: - x[0] + r[0] <= 0
 mccormick2[1]: - x[1] + r[1] <= 0
 mccormick2[2]: - x[2] + r[2] <= 0
 mccormick2[3]: - x[3] + r[3] <= 0
 mccormick2[4]: - x[4] + r[4] <= 0
 mccormick2[5]: - x[5] + r[5] <= 0
 mccormick2[6]: - x[6] + r[6] <= 0
 mccormick2[7]: - x[7] + r[7] <= 0
 mccormick2[8]: - x[8] + r[8] <= 0
 mccormick2[9]: - x[9] + r[9] <= 0
 mccormick2[10]: - x[10] + r[10] <= 0
 mccormick2[11]: - x[11] + r[11] <= 0
 mccormick2[12]: - x[12] + r[12] <= 0
 mccormick2[13]: - x[13] + r[13] <= 0
 mccormick2[14]: - x[14] + r[14] <= 0
 mccormick2[15]: - x[15] + r[15] <= 0
 mccormick2[16]: - x[16] + r[16] <= 0
 mccormick2[17]: - x[17] + r[17] <= 0
 mccormick2[18]: - x[18] + r[18] <= 0
 mccormick2[19]: - x[19] + r[19] <= 0
 mccormick2[20]: - x[20] + r[20] <= 0
 mccormick2[21]: - x[21] + r[21] <= 0
 mccormick2[22]: - x[22] + r[22] <= 0
 mccormick2[23]: - x[23] + r[23] <= 0
 mccormick2[24]: - x[24] + r[24] <= 0
 mccormick2[25]: - x[25] + r[25] <= 0
 mccormick2[26]: - x[26] + r[26] <= 0
 mccormick2[27]: - x[27] + r[27] <= 0
 mccormick2[28]: - x[28] + r[28] <= 0
 mccormick2[29]: - x[29] + r[29] <= 0
 mccormick2[30]: - x[30] + r[30] <= 0
 mccormick2[31]: - x[31] + r[31] <= 0
 mccormick2[32]: - x[32] + r[32] <= 0
 mccormick2[33]: - x[33] + r[33] <= 0
 mccormick2[34]: - x[34] + r[34] <= 0
 mccormick2[35]: - x[35] + r[35] <= 0
 mccormick2[36]: - x[36] + r[36] <= 0
 mccormick2[37]: - x[37] + r[37] <= 0
 mccormick2[38]: - x[38] + r[38] <= 0
 mccormick2[39]: - x[39] + r[39] <= 0
 mccormick2[40]: - x[40] + r[40] <= 0
 mccormick2[41]: - x[41] + r[41] <= 0
 mccormick2[42]: - x[42] + r[42] <= 0
 mccormick2[43]: - x[43] + r[43] <= 0
 mccormick2[44]: - x[44] + r[44] <= 0
 mccormick2[45]: - x[45] + r[45] <= 0
 mccormick2[46]: - x[46] + r[46] <= 0
 mccormick2[47]: - x[47] + r[47] <= 0
 mccormick2[48]: - x[48] + r[48] <= 0
 mccormick2[49]: - x[49] + r[49] <= 0
 mccormick2[50]: - x[50] + r[50] <= 0
 mccormick2[51]: - x[51] + r[51] <= 0
 mccormick2[52]: - x[52] + r[52] <= 0
 mccormick2[53]: - x[53] + r[53] <= 0
 mccormick2[54]: - x[54] + r[54] <= 0
 mccormick2[55]: - x[55] + r[55] <= 0
 mccormick2[56]: - x[56] + r[56] <= 0
 mccormick2[57]: - x[57] + r[57] <= 0
 mccormick2[58]: - x[58] + r[58] <= 0
 mccormick2[59]: - x[59] + r[59] <= 0
 mccormick2[60]: - x[60] + r[60] <= 0
 mccormick2[61]: - x[61] + r[61] <= 0
 mccormick2[62]: - x[62] + r[62] <= 0
 mccormick2[63]: - x[63] + r[63] <= 0
 mccormick2[64]: - x[64] + r[64] <= 0
 mccormick2[65]: - x[65] + r[65] <= 0
 mccormick2[66]: - x[66] + r[66] <= 0
 mccormick2[67]: - x[67] + r[67] <= 0
 mccormick2[68]: - x[68] + r[68] <= 0
 mccormick2[69]: - x[69] + r[69] <= 0
 mccormick3[0]: x[0] + u[0] - r[0] <= 1
 mccormick3[1]: x[1] + u[1] - r[1] <= 1
 mccormick3[2]: x[2] + u[2] - r[2] <= 1
 mccormick3[3]: x[3] + u[3] - r[3] <= 1
 mccormick3[4]: x[4] + u[4] - r[4] <= 1
 mccormick3[5]: x[5] + u[5] - r[5] <= 1
 mccormick3[6]: x[6] + u[6] - r[6] <= 1
 mccormick3[7]: x[7] + u[7] - r[7] <= 1
 mccormick3[8]: x[8] + u[8] - r[8] <= 1
 mccormick3[9]: x[9] + u[9] - r[9] <= 1
 mccormick3[10]: x[10] + u[10] - r[10] <= 1
 mccormick3[11]: x[11] + u[11] - r[11] <= 1
 mccormick3[12]: x[12] + u[12] - r[12] <= 1
 mccormick3[13]: x[13] + u[13] - r[13] <= 1
 mccormick3[14]: x[14] + u[14] - r[14] <= 1
 mccormick3[15]: x[15] + u[15] - r[15] <= 1
 mccormick3[16]: x[16] + u[16] - r[16] <= 1
 mccormick3[17]: x[17] + u[17] - r[17] <= 1
 mccormick3[18]: x[18] + u[18] - r[18] <= 1
 mccormick3[19]: x[19] + u[19] - r[19] <= 1
 mccormick3[20]: x[20] + u[20] - r[20] <= 1
 mccormick3[21]: x[21] + u[21] - r[21] <= 1
 mccormick3[22]: x[22] + u[22] - r[22] <= 1
 mccormick3[23]: x[23] + u[23] - r[23] <= 1
 mccormick3[24]: x[24] + u[24] - r[24] <= 1
 mccormick3[25]: x[25] + u[25] - r[25] <= 1
 mccormick3[26]: x[26] + u[26] - r[26] <= 1
 mccormick3[27]: x[27] + u[27] - r[27] <= 1
 mccormick3[28]: x[28] + u[28] - r[28] <= 1
 mccormick3[29]: x[29] + u[29] - r[29] <= 1
 mccormick3[30]: x[30] + u[30] - r[30] <= 1
 mccormick3[31]: x[31] + u[31] - r[31] <= 1
 mccormick3[32]: x[32] + u[32] - r[32] <= 1
 mccormick3[33]: x[33] + u[33] - r[33] <= 1
 mccormick3[34]: x[34] + u[34] - r[34] <= 1
 mccormick3[35]: x[35] + u[35] - r[35] <= 1
 mccormick3[36]: x[36] + u[36] - r[36] <= 1
 mccormick3[37]: x[37] + u[37] - r[37] <= 1
 mccormick3[38]: x[38] + u[38] - r[38] <= 1
 mccormick3[39]: x[39] + u[39] - r[39] <= 1
 mccormick3[40]: x[40] + u[40] - r[40] <= 1
 mccormick3[41]: x[41] + u[41] - r[41] <= 1
 mccormick3[42]: x[42] + u[42] - r[42] <= 1
 mccormick3[43]: x[43] + u[43] - r[43] <= 1
 mccormick3[44]: x[44] + u[44] - r[44] <= 1
 mccormick3[45]: x[45] + u[45] - r[45] <= 1
 mccormick3[46]: x[46] + u[46] - r[46] <= 1
 mccormick3[47]: x[47] + u[47] - r[47] <= 1
 mccormick3[48]: x[48] + u[48] - r[48] <= 1
 mccormick3[49]: x[49] + u[49] - r[49] <= 1
 mccormick3[50]: x[50] + u[50] - r[50] <= 1
 mccormick3[51]: x[51] + u[51] - r[51] <= 1
 mccormick3[52]: x[52] + u[52] - r[52] <= 1
 mccormick3[53]: x[53] + u[53] - r[53] <= 1
 mccormick3[54]: x[54] + u[54] - r[54] <= 1
 mccormick3[55]: x[55] + u[55] - r[55] <= 1
 mccormick3[56]: x[56] + u[56] - r[56] <= 1
 mccormick3[57]: x[57] + u[57] - r[57] <= 1
 mccormick3[58]: x[58] + u[58] - r[58] <= 1
 mccormick3[59]: x[59] + u[59] - r[59] <= 1
 mccormick3[60]: x[60] + u[60] - r[60] <= 1
 mccormick3[61]: x[61] + u[61] - r[61] <= 1
 mccormick3[62]: x[62] + u[62] - r[62] <= 1
 mccormick3[63]: x[63] + u[63] - r[63] <= 1
 mccormick3[64]: x[64] + u[64] - r[64] <= 1
 mccormick3[65]: x[65] + u[65] - r[65] <= 1
 mccormick3[66]: x[66] + u[66] - r[66] <= 1
 mccormick3[67]: x[67] + u[67] - r[67] <= 1
 mccormick3[68]: x[68] + u[68] - r[68] <= 1
 mccormick3[69]: x[69] + u[69] - r[69] <= 1
Bounds
Binaries
 x[0] x[1] x[2] x[3] x[4] x[5] x[6] x[7] x[8] x[9] x[10] x[11] x[12] x[13]
 x[14] x[15] x[16] x[17] x[18] x[19] x[20] x[21] x[22] x[23] x[24] x[25]
 x[26] x[27] x[28] x[29] x[30] x[31] x[32] x[33] x[34] x[35] x[36] x[37]
 x[38] x[39] x[40] x[41] x[42] x[43] x[44] x[45] x[46] x[47] x[48] x[49]
 x[50] x[51] x[52] x[53] x[54] x[55] x[56] x[57] x[58] x[59] x[60] x[61]
 x[62] x[63] x[64] x[65] x[66] x[67] x[68] x[69] u[0] u[1] u[2] u[3] u[4]
 u[5] u[6] u[7] u[8] u[9] u[10] u[11] u[12] u[13] u[14] u[15] u[16] u[17]
 u[18] u[19] u[20] u[21] u[22] u[23] u[24] u[25] u[26] u[27] u[28] u[29]
 u[30] u[31] u[32] u[33] u[34] u[35] u[36] u[37] u[38] u[39] u[40] u[41]
 u[42] u[43] u[44] u[45] u[46] u[47] u[48] u[49] u[50] u[51] u[52] u[53]
 u[54] u[55] u[56] u[57] u[58] u[59] u[60] u[61] u[62] u[63] u[64] u[65]
 u[66] u[67] u[68] u[69] r[0] r[1] r[2] r[3] r[4] r[5] r[6] r[7] r[8] r[9]
 r[10] r[11] r[12] r[13] r[14] r[15] r[16] r[17] r[18] r[19] r[20] r[21]
 r[22] r[23] r[24] r[25] r[26] r[27] r[28] r[29] r[30] r[31] r[32] r[33]
 r[34] r[35] r[36] r[37] r[38] r[39] r[40] r[41] r[42] r[43] r[44] r[45]
 r[46] r[47] r[48] r[49] r[50] r[51] r[52] r[53] r[54] r[55] r[56] r[57]
 r[58] r[59] r[60] r[61] r[62] r[63] r[64] r[65] r[66] r[67] r[68] r[69]
End
