instances/knapsack/discrete/knapsack_70_13.kp
85965
70
276

15 1.5 12
24 2.4 100
26 2.6 6
27 2.7 46
40 4.0 67
93 9.3 63
37 3.7 79
23 2.3 37
5 0.5 52
2 0.2 32
19 1.9 33
39 3.9 89
64 6.4 73
20 2.0 80
8 0.8 77
44 4.4 66
81 8.1 40
56 5.6 68
69 6.9 28
38 3.8 39
9 0.9 27
23 2.3 13
68 6.8 90
38 3.8 54
56 5.6 19
24 2.4 68
94 9.4 82
43 4.3 77
21 2.1 28
87 8.7 38
77 7.7 7
11 1.1 94
63 6.3 58
9 0.9 49
60 6.0 85
49 4.9 59
8 0.8 35
36 3.6 65
36 3.6 28
10 1.0 73
27 2.7 78
5 0.5 19
6 0.6 15
73 7.3 81
43 4.3 8
94 9.4 13
49 4.9 30
21 2.1 54
31 3.1 34
16 1.6 59
30 3.0 73
8 0.8 44
53 5.3 61
20 2.0 51
36 3.6 74
87 8.7 24
73 7.3 36
62 6.2 94
4 0.4 18
34 3.4 53
40 4.0 50
62 6.2 36
87 8.7 79
2 0.2 51
91 9.1 44
28 2.8 39
84 8.4 83
38 3.8 31
52 5.2 22
93 9.3 35

39590
304

[0.6273881200269035 1.1846816262936355 0.4021348102831283 1.8881496790920562 1.2887424685374345 1.3911525948840764 0.5162086044647191 2.210226117305957 1.771856490769658 3.7339828843486624 4.04942779536147 1.781020213229884 2.8708253823282655 4.053004589050195 0.6681505526461847 0.4827224670709029 2.0882534502328007 0.29307665727943494 2.8645123413754687 3.3728995776640254 3.6871919755007054 2.8035788288241337 2.517434393387956 3.423386708006409 0.6964752455933656 0.9344471937162062 0.16449817287289042 0.4702876339053824 2.184270734283028 2.6669387577689463 1.7722596385011398 2.1859738089332854 0.9699599091212419 3.4219251273540374 3.350006673805903 3.181973207633506 3.210870805320353 3.4874971253934866 1.3211369723149058 0.4200781461493479 4.050512870655951 4.122785317756297 3.8091832247031197 3.001642740077744 0.9511300950369732 0.034136643715790754 0.6266250747033235 0.5769472945365229 3.8867791635038533 2.7236961186631197 0.0007314392194800488 2.43280079194506 1.908506625133094 1.3187955434111853 2.920451667937765 2.390724719006912 0.7782844866010084 4.18866892370841 3.0425575724134495 2.1605197006093313 2.3661078766990644 4.191567621207055 1.5712907963660738 4.200108163930387 4.065358059990182 4.235257527989433 1.6792138238398624 3.2992788360662733 3.3268689248820342 3.2243361754333777]

[78 2 60 89 78 20 19 10 19 4 62 57 70 86 63 11 91 30 51 24 91 98 18 61 63 22 4 54 36 73 4 22 42 27 10 63 14 95 94 17 73 4 64 32 69 37 16 24 57 30 17 94 31 10 3 54 67 81 42 76 19 97 18 9 42 18 79 89 94 24]
